
Maximize
  obj: c_0 + c_1 + c_2 + c_3 + c_4

Subject To
  like_0_akuof: c_0 - i_0 <= 0
  like_0_byyii: c_0 - i_1 <= 0

  like_1_dlust: c_1 - i_2 <= 0
  like_1_luncl: c_1 - i_3 <= 0

  like_2_akuof: c_2 - i_0 <= 0
  like_2_luncl: c_2 - i_3 <= 0

  like_3_dlust: c_3 - i_2 <= 0
  like_3_vxglq: c_3 - i_4 <= 0

  like_4_dlust: c_4 - i_2 <= 0
  like_4_xveqd: c_4 - i_5 <= 0


Binaries
  c_0 c_1 c_2 c_3 c_4
  i_0 i_1 i_2 i_3 i_4 i_5

End
